c User generated cnf file
p cnf 9 46
7 -2 1 0 
-7 7 4 0 
-8 5 4 0 
4 9 -1 0 
-2 4 1 0 
-8 1 7 0 
4 8 -6 0 
-4 2 9 0 
1 7 -2 0 
9 7 -2 0 
-6 8 3 0 
2 3 -3 0 
-9 6 6 0 
-2 4 5 0 
6 -2 5 0 
4 6 -2 0 
-8 1 3 0 
8 1 -2 0 
6 -5 6 0 
-5 6 4 0 
3 -5 3 0 
-1 2 3 0 
-1 4 2 0 
-2 2 7 0 
4 -1 4 0 
-6 9 1 0 
1 3 -3 0 
6 7 -6 0 
4 9 -6 0 
3 -1 6 0 
-7 8 6 0 
-9 2 1 0 
-1 2 7 0 
-8 7 5 0 
-8 5 6 0 
9 6 -3 0 
-3 1 8 0 
1 2 -5 0 
-6 7 8 0 
3 -3 9 0 
8 -5 4 0 
-5 8 7 0 
-6 5 8 0 
-7 5 2 0 
6 2 -9 0 
-3 5 8 0 
